0 0 0 0
0 1 2 0
0 2 2 0
0 3 0 0
0 4 0 5
0 5 0 11
0 6 1 12
0 7 0 11
0 8 2 20
0 9 2 12
0 10 0 22
0 11 2 20
0 12 2 15
0 13 2 11
0 14 2 15
0 15 1 6
0 16 2 22
0 17 1 8
0 18 2 22
0 19 2 30
0 20 2 30
0 21 2 30
0 22 2 27
0 23 2 39
0 24 0 31
0 25 2 31
0 26 1 37
0 27 0 35
0 28 1 41
0 29 2 39
0 30 1 44
0 31 0 46
